db/data/7207208184941205882544910522177723913.z3.out
sat
-------------------
377.940157083
